
100
31018

415 515
288 388
845 945
444 544
529 629
552 652
339 439
640 740
901 1001
72 172
561 661
265 365
656 756
624 724
46 146
113 213
529 629
859 959
798 898
824 924
138 238
351 451
577 677
367 467
231 331
923 1023
636 736
399 499
477 577
700 800
760 860
780 880
335 435
968 1068
764 864
271 371
172 272
431 531
261 361
878 978
10 110
818 918
162 262
812 912
433 533
132 232
986 1086
419 519
979 1079
323 423
238 338
556 656
195 295
578 678
708 808
642 742
6 106
668 768
269 369
454 554
859 959
867 967
132 232
92 192
754 854
432 532
708 808
647 747
990 1090
861 961
995 1095
903 1003
569 669
408 508
163 263
840 940
492 592
486 586
294 394
331 431
505 605
643 743
310 410
150 250
596 696
945 1045
562 662
979 1079
181 281
797 897
538 638
32 132
175 275
721 821
819 919
132 232
684 784
888 988
241 341
829 929
